(set-logic QF_S)
(declare-fun var0 () String)
(assert (str.in.re var0 (re.++ (re.union (re.union (str.to.re "000") (str.to.re "111")) (re.union (str.to.re "2") (str.to.re "333"))) (re.++ (re.* (re.+ (str.to.re "4"))) (re.++ (re.+ (re.union (str.to.re "555") (str.to.re "6"))) (re.++ (re.* (re.+ (str.to.re "777"))) (re.++ (re.* (re.* (str.to.re "88"))) (re.++ (re.* (re.union (str.to.re "99") (str.to.re "a"))) (re.++ (re.* (re.* (str.to.re "bbb"))) (re.++ (re.* (re.* (str.to.re "ccc"))) (re.++ (re.+ (re.+ (str.to.re "d"))) (re.++ (re.+ (re.union (str.to.re "e") (str.to.re "ff"))) (re.++ (re.+ (re.+ (str.to.re "gg"))) (re.++ (re.union (re.union (str.to.re "hhh") (str.to.re "i")) (re.union (str.to.re "j") (str.to.re "kk"))) (re.++ (re.union (re.* (str.to.re "ll")) (re.+ (str.to.re "mmm"))) (re.++ (re.+ (re.+ (str.to.re "n"))) (re.++ (re.* (re.* (str.to.re "oo"))) (re.++ (re.union (re.* (str.to.re "pp")) (re.+ (str.to.re "qq"))) (re.++ (re.union (re.union (str.to.re "rr") (str.to.re "s")) (re.* (str.to.re "t"))) (re.++ (re.union (re.union (str.to.re "uuu") (str.to.re "v")) (re.* (str.to.re "www"))) (re.++ (re.union (re.union (str.to.re "xxx") (str.to.re "y")) (re.* (str.to.re "z"))) (re.++ (re.* (re.union (str.to.re "AAA") (str.to.re "BBB"))) (re.++ (re.union (re.+ (str.to.re "CCC")) (re.union (str.to.re "D") (str.to.re "EEE"))) (re.++ (re.* (re.+ (str.to.re "F"))) (re.++ (re.* (re.* (str.to.re "GGG"))) (re.++ (re.+ (re.union (str.to.re "HH") (str.to.re "III"))) (re.++ (re.union (re.union (str.to.re "JJ") (str.to.re "K")) (re.* (str.to.re "LL"))) (re.++ (re.* (re.+ (str.to.re "MMM"))) (re.++ (re.union (re.* (str.to.re "NNN")) (re.+ (str.to.re "OO"))) (re.++ (re.union (re.union (str.to.re "PP") (str.to.re "Q")) (re.union (str.to.re "R") (str.to.re "SSS"))) (re.++ (re.+ (re.* (str.to.re "T"))) (re.++ (re.union (re.+ (str.to.re "U")) (re.union (str.to.re "VVV") (str.to.re "WW"))) (re.++ (re.union (re.+ (str.to.re "XX")) (re.+ (str.to.re "YYY"))) (re.++ (re.* (re.* (str.to.re "Z"))) (re.++ (re.union (re.+ (str.to.re "!!!")) (re.union (str.to.re """""") (str.to.re "###"))) (re.++ (re.* (re.+ (str.to.re "$$"))) (re.++ (re.* (re.* (str.to.re "%%"))) (re.++ (re.* (re.* (str.to.re "&"))) (re.++ (re.* (re.* (str.to.re "'''"))) (re.++ (re.+ (re.+ (str.to.re "(("))) (re.++ (re.* (re.* (str.to.re ")))"))) (re.++ (re.union (re.+ (str.to.re "*")) (re.union (str.to.re "+++") (str.to.re ",,"))) (re.++ (re.union (re.union (str.to.re "-") (str.to.re ".")) (re.union (str.to.re "/") (str.to.re ":"))) (re.++ (re.+ (re.union (str.to.re ";") (str.to.re "<<<"))) (re.++ (re.union (re.+ (str.to.re "===")) (re.* (str.to.re ">>>"))) (re.++ (re.union (re.* (str.to.re "???")) (re.union (str.to.re "@@") (str.to.re "["))) (re.++ (re.union (re.* (str.to.re "\\")) (re.+ (str.to.re "]"))) (re.++ (re.* (re.* (str.to.re "^"))) (re.++ (re.* (re.union (str.to.re "___") (str.to.re "`"))) (re.++ (re.+ (re.+ (str.to.re "{"))) (re.++ (re.* (re.union (str.to.re "|||") (str.to.re "}}}"))) (re.++ (re.union (re.+ (str.to.re "~~")) (re.union (str.to.re "0") (str.to.re "111"))) (re.++ (re.union (re.+ (str.to.re "2")) (re.* (str.to.re "3"))) (re.++ (re.+ (re.+ (str.to.re "44"))) (re.++ (re.* (re.* (str.to.re "5"))) (re.++ (re.+ (re.union (str.to.re "666") (str.to.re "77"))) (re.++ (re.+ (re.* (str.to.re "8"))) (re.++ (re.* (re.union (str.to.re "9") (str.to.re "a"))) (re.++ (re.+ (re.+ (str.to.re "bb"))) (re.++ (re.* (re.* (str.to.re "cc"))) (re.++ (re.+ (re.* (str.to.re "d"))) (re.++ (re.+ (re.+ (str.to.re "ee"))) (re.++ (re.* (re.* (str.to.re "fff"))) (re.++ (re.+ (re.union (str.to.re "ggg") (str.to.re "hh"))) (re.++ (re.union (re.* (str.to.re "i")) (re.union (str.to.re "jj") (str.to.re "kk"))) (re.++ (re.union (re.+ (str.to.re "l")) (re.* (str.to.re "m"))) (re.++ (re.+ (re.+ (str.to.re "n"))) (re.++ (re.* (re.+ (str.to.re "ooo"))) (re.++ (re.+ (re.+ (str.to.re "p"))) (re.++ (re.union (re.+ (str.to.re "qq")) (re.union (str.to.re "rrr") (str.to.re "sss"))) (re.++ (re.union (re.union (str.to.re "ttt") (str.to.re "uu")) (re.* (str.to.re "vv"))) (re.++ (re.* (re.+ (str.to.re "ww"))) (re.++ (re.union (re.union (str.to.re "xx") (str.to.re "yyy")) (re.+ (str.to.re "zz"))) (re.++ (re.+ (re.* (str.to.re "AAA"))) (re.++ (re.+ (re.+ (str.to.re "BB"))) (re.++ (re.+ (re.+ (str.to.re "CCC"))) (re.++ (re.union (re.union (str.to.re "DDD") (str.to.re "EE")) (re.+ (str.to.re "FF"))) (re.++ (re.+ (re.* (str.to.re "G"))) (re.++ (re.+ (re.+ (str.to.re "HH"))) (re.* (re.union (str.to.re "III") (str.to.re "JJ"))))))))))))))))))))))))))))))))))))))))))))))))))))))))))))))))))))))))))))))))))
(check-sat)